754403 7697.51
130507 575460
7697.51 748985
397896 308776
316248 435388
134161 573938
114877 641625
181795 527639
277360 464664
474579 268099
138597 571350
720006 36985.3
148387 562774
586317 148635
149839 562087
577835 168573
159879 552815
654938 107313
501722 213310
259467 470297
175092 540875
442113 277063
387565 329401
309619 454859
512928 204218
87209.2 659557
393509 323639
165108 552170
731353 36917.6
692110 77478.8
393377 323993
619988 124926
490814 227241
539006 193966
654996 91100.6
397642 320704
52474.5 707343
495608 222774
249778 492441
19427.6 725025
204086 515163
200824 522968
706857 48796.6
351476 383626
356104 363389
635523 117217
345146 385604
37484.8 708352
116005 628133
541692 179844
126719 613037
102578 641724
489145 232820
481245 242304
368700 353444
332619 402285
424029 302238
65030.4 695967
73498.6 663033
526417 198283
225216 505683
706141 56887.1
262240 467327
213915 512776
683710 90122.6
219034 508070
257081 478802
